solving instance mcf arcs c54 3 6 log
Couenne 0.5.8 -- an Open-Source solver for Mixed Integer Nonlinear Optimization
Mailing list: couenne@list.coin-or.org
Instructions: http://www.coin-or.org/Couenne
couenne: 
ANALYSIS TEST: Reading problem: 0.1 seconds
Reformulating problem: 628.4 seconds
NLP0012I 
              Num      Status      Obj             It       time                 Location
NLP0014I             1        TIME 0      138 1589.7046
Loaded instance "/tmp/jl_mJm8Zy/model.nl"
Constraints:        13620
Variables:         209620 (550 integer)
Auxiliaries:         1441 (0 integer)

Coin0506I Presolve 15670 (-1591) rows, 209040 (-2021) columns and 838760 (-3731) elements
Clp0030I 0 infeas 70252, obj 0 - mu 1000, its 0, 0 interior
Clp0030I 1 infeas 50296.143, obj 0 - mu 1000, its 2, 5406 interior
Clp0030I 2 infeas 4907.537, obj 0 - mu 1000, its 52, 36685 interior
Clp0030I 3 infeas 4807.312, obj 0 - mu 1000, its 52, 37753 interior
Clp0030I 4 infeas 4729.8653, obj 0 - mu 1000, its 52, 37974 interior
Clp0030I 5 infeas 4680.8029, obj 0 - mu 1000, its 52, 38031 interior
Clp0030I 6 infeas 4648.4284, obj 0 - mu 1000, its 52, 38047 interior
Clp0030I 7 infeas 4382.4426, obj 0 - mu 333.3, its 52, 38651 interior
Clp0030I 8 infeas 4335.2408, obj 0 - mu 333.3, its 52, 37860 interior
Clp0030I 9 infeas 4306.5846, obj 0 - mu 333.3, its 52, 37415 interior
Clp0030I 10 infeas 4095.0581, obj 0 - mu 111.08889, its 52, 30873 interior
Clp0030I 11 infeas 4066.8942, obj 0 - mu 111.08889, its 52, 29867 interior
Clp0030I 12 infeas 3899.7893, obj 0 - mu 37.025927, its 52, 19528 interior
Clp0030I 13 infeas 3883.0171, obj 0 - mu 37.025927, its 52, 19155 interior
Clp0030I 14 infeas 3788.8907, obj 0 - mu 12.340741, its 52, 11206 interior
Clp0030I 15 infeas 3781.9142, obj 0 - mu 12.340741, its 52, 11045 interior
Clp0030I 16 infeas 3742.9108, obj 0 - mu 4.1131691, its 62, 7056 interior
Clp0030I 17 infeas 3735.897, obj 0 - mu 4.1131691, its 52, 6987 interior
Clp0030I 18 infeas 3736.1024, obj 0 - mu 1.3709193, its 105, 5324 interior
Clp0030I 19 infeas 3705.9639, obj 58.531994 - mu 0.45692739, its 105, 4773 interior
Clp0030I 20 infeas 3318.3005, obj 9123.1393 - mu 0.1522939, its 105, 5057 interior
Clp0030I 21 infeas 3227.7707, obj 10380.41 - mu 0.1522939, its 105, 4945 interior
Clp0030I 22 infeas 3154.7794, obj 11130.296 - mu 0.1522939, its 105, 4669 interior
Clp0030I 23 infeas 3113.5251, obj 11726.094 - mu 0.1522939, its 105, 4576 interior
Clp0030I 24 infeas 3078.268, obj 12237.8 - mu 0.1522939, its 105, 4444 interior
Clp0030I 25 infeas 3048.3497, obj 12847.54 - mu 0.1522939, its 105, 4405 interior
Clp0030I 26 infeas 1787.0119, obj 64725.76 - mu 0.050759557, its 105, 5759 interior
Clp0030I 27 infeas 1727.0128, obj 64703.268 - mu 0.050759557, its 105, 5499 interior
Clp0030I 28 infeas 1674.5904, obj 64584.689 - mu 0.050759557, its 105, 5440 interior
Clp0030I 29 infeas 1642.5019, obj 64478.844 - mu 0.050759557, its 105, 5154 interior
Clp0030I 30 infeas 1615.4642, obj 64343.669 - mu 0.050759557, its 105, 5070 interior
Clp0030I 31 infeas 1595.475, obj 64312.21 - mu 0.050759557, its 105, 5201 interior
Clp0030I 32 infeas 643.64266, obj 111510 - mu 0.01691816, its 105, 6373 interior
Clp0030I 33 infeas 53.050962, obj 142507.64 - mu 0.01691816, its 105, 5912 interior
Clp0030I 34 infeas 27.334315, obj 141640.95 - mu 0.01691816, its 105, 5551 interior
Clp0030I 35 infeas 43.020079, obj 140424.81 - mu 0.01691816, its 105, 5567 interior
Clp0030I 36 infeas 33.416492, obj 139523.95 - mu 0.01691816, its 105, 5278 interior
Clp0030I 37 infeas 16.415774, obj 138929.4 - mu 0.01691816, its 105, 4752 interior
Clp0030I 38 infeas 199.56541, obj 128448.81 - mu 0.0056388228, its 105, 6602 interior
Clp0030I 39 infeas 8.4847945, obj 138396.79 - mu 0.0056388228, its 105, 5975 interior
Clp0030I 40 infeas 6.4811083, obj 138258.75 - mu 0.0056388228, its 105, 5619 interior
Clp0030I 41 infeas 4.7010947, obj 138083.34 - mu 0.0056388228, its 105, 5339 interior
Clp0030I 42 infeas 3.0505109, obj 137946.93 - mu 0.0056388228, its 105, 5266 interior
Clp0030I 43 infeas 7.5244868, obj 137667.69 - mu 0.0056388228, its 105, 5908 interior
Clp0030I 44 infeas 66.340607, obj 134213.15 - mu 0.0018794197, its 105, 8019 interior
Clp0030I 45 infeas 3.7012545, obj 137500.59 - mu 0.0018794197, its 105, 7000 interior
Clp0030I 46 infeas 2.2436425, obj 137468.47 - mu 0.0018794197, its 105, 6584 interior
Clp0030I 47 infeas 1.3467842, obj 137393.85 - mu 0.0018794197, its 105, 6510 interior
Clp0030I 48 infeas 0.99644996, obj 137351.42 - mu 0.0018794197, its 105, 6444 interior
Clp0030I 49 infeas 0.87649853, obj 137289.33 - mu 0.0018794197, its 105, 6481 interior
Clp0030I 50 infeas 22.265702, obj 136144.09 - mu 0.00062641057, its 105, 11284 interior
Clp1000I sum of infeasibilities 0.51982 - average 3.31729e-05, 202559 fixed columns
Coin0506I Presolve 3282 (-12388) rows, 2259 (-206781) columns and 12060 (-826700) elements
Clp0006I 0  Obj 137289.35 Primal inf 0.53141273 (1113) Dual inf 3.6441944e+11 (2253)
Clp0006I 303  Obj 137289.35 Primal inf 0.29219737 (802) Dual inf 2.561067e+11 (1886)
Clp0006I 677  Obj 137289.35 Primal inf 0.2289221 (576) Dual inf 7.7619205e+11 (1644)
Clp0006I 878  Obj 137289.35 Primal inf 0.14818813 (451) Dual inf 7.5141723e+11 (1475)
Clp0006I 1057  Obj 137289.35 Primal inf 0.11445659 (353) Dual inf 1.3558945e+12 (1385)
Clp0006I 1235  Obj 137289.35 Primal inf 0.08996734 (268) Dual inf 1.3161562e+12 (1209)
Clp0006I 1438  Obj 137289.35 Primal inf 0.071503149 (172) Dual inf 1.0991567e+12 (1108)
Clp0006I 1585  Obj 137289.35 Primal inf 0.015817001 (105) Dual inf 8.642723e+11 (860)
Clp0006I 1722  Obj 137289.35 Primal inf 0.0089649288 (35) Dual inf 7.9633653e+11 (918)
Clp0006I 1850  Obj 136953.34 Primal inf 0.0038806361 (4) Dual inf 1.1075951e+10 (753)
Clp0006I 2009  Obj 134014.79 Primal inf 2.8714323e-05 (2) Dual inf 1.1256071e+08 (559)
Clp0029I End of values pass after 2254 iterations
Clp0006I 2254  Obj 127092.55 Dual inf 614.4647 (292)
Clp0006I 2517  Obj 122837.17
Clp0000I Optimal - objective value 122837.17
Clp0006I 0  Obj 122837.17
Clp0000I Optimal - objective value 122837.17
Coin0511I After Postsolve, objective 122837.17, infeasibilities - dual 0 (0), primal 0 (0)
Clp0006I 0  Obj 122837.17 Dual inf 16096.597 (7552)
Clp0006I 303  Obj 122837.17 Dual inf 14015.08 (6864)
Clp0006I 606  Obj 122837.17 Dual inf 5092.4597 (3738)
Clp0006I 909  Obj 122837.17 Dual inf 2341.3453 (2249)
Clp0006I 1212  Obj 122837.17 Dual inf 842.58954 (1217)
Clp0006I 1516  Obj 122787.2 Dual inf 374.10324 (783)
Clp0006I 1821  Obj 122713.07 Dual inf 51.868284 (281)
Clp0006I 2068  Obj 122679.6
Clp0000I Optimal - objective value 122679.6
Clp0006I 0  Obj 122679.6
Clp0000I Optimal - objective value 122679.6
Clp0006I 0  Obj 122679.6
Clp0000I Optimal - objective value 122679.6
Clp0032I Optimal objective 122679.605 - 0 iterations time 27.612, Presolve 0.66, Idiot 26.85
Clp0000I Optimal - objective value 122679.6
NLP Heuristic: NLP0014I             2        TIME 0       75 895.06979
no solution.
Clp0000I Optimal - objective value 122679.6
Cbc0020I Exiting on maximum time
Cbc0005I Partial search - best objective 1e+50 (best possible 122679.6), took 0 iterations and 0 nodes (896.07 seconds)
Cbc0035I Maximum depth 0, 0 variables fixed on reduced cost

 	"Not finished"

Linearization cuts added at root node:      17261
Linearization cuts added in total:          17261  (separation time: 13.2391s)
Total solve time:                         923.703s (923.703s in branch-and-bound)
Lower bound:                               122680
Upper bound:                                  inf  (gap: --)
Branch-and-bound nodes:                         0
Stats: /tmp/jl_mJm8Zy/model.nl 209620 [var]  550 [int] 13620 [con] 1441 [aux]  17261 [root]    17261 [tot] 13.2391 [sep]  923.703 [time]  923.862 [bb]         1.226796e+05 [lower]         1.000000e+50 [upper]       0 [nodes]
Performance of                           FBBT:	    19.7828s,        3 runs. fix:          0 shrnk: 5.33904e-15 ubd:          0 2ubd:          0 infeas:          0
ERROR: LoadError: MathOptInterface.GetAttributeNotAllowed{MathOptInterface.ObjectiveBound}: Getting attribute MathOptInterface.ObjectiveBound() cannot be performed: AmplNLWriter.Optimizer does not support getting the attribute MathOptInterface.ObjectiveBound(). You may want to use a `CachingOptimizer` in `AUTOMATIC` mode or you may need to call `reset_optimizer` before doing this operation if the `CachingOptimizer` is in `MANUAL` mode.
Stacktrace:
  [1] get_fallback(model::AmplNLWriter.Optimizer, attr::MathOptInterface.ObjectiveBound)
    @ MathOptInterface ~/.julia/packages/MathOptInterface/gLl4d/src/attributes.jl:409
  [2] get(::AmplNLWriter.Optimizer, ::MathOptInterface.ObjectiveBound)
    @ MathOptInterface ~/.julia/packages/MathOptInterface/gLl4d/src/attributes.jl:390
  [3] _get_model_attribute(model::MathOptInterface.Utilities.CachingOptimizer{AmplNLWriter.Optimizer, MathOptInterface.Utilities.UniversalFallback{MathOptInterface.Utilities.Model{Float64}}}, attr::MathOptInterface.ObjectiveBound)
    @ MathOptInterface.Utilities ~/.julia/packages/MathOptInterface/gLl4d/src/Utilities/cachingoptimizer.jl:865
  [4] get(model::MathOptInterface.Utilities.CachingOptimizer{AmplNLWriter.Optimizer, MathOptInterface.Utilities.UniversalFallback{MathOptInterface.Utilities.Model{Float64}}}, attr::MathOptInterface.ObjectiveBound)
    @ MathOptInterface.Utilities ~/.julia/packages/MathOptInterface/gLl4d/src/Utilities/cachingoptimizer.jl:900
  [5] get(b::MathOptInterface.Bridges.LazyBridgeOptimizer{MathOptInterface.Utilities.CachingOptimizer{AmplNLWriter.Optimizer, MathOptInterface.Utilities.UniversalFallback{MathOptInterface.Utilities.Model{Float64}}}}, attr::MathOptInterface.ObjectiveBound)
    @ MathOptInterface.Bridges ~/.julia/packages/MathOptInterface/gLl4d/src/Bridges/bridge_optimizer.jl:889
  [6] _get_model_attribute(model::MathOptInterface.Utilities.CachingOptimizer{MathOptInterface.Bridges.LazyBridgeOptimizer{MathOptInterface.Utilities.CachingOptimizer{AmplNLWriter.Optimizer, MathOptInterface.Utilities.UniversalFallback{MathOptInterface.Utilities.Model{Float64}}}}, MathOptInterface.Utilities.UniversalFallback{MathOptInterface.Utilities.Model{Float64}}}, attr::MathOptInterface.ObjectiveBound)
    @ MathOptInterface.Utilities ~/.julia/packages/MathOptInterface/gLl4d/src/Utilities/cachingoptimizer.jl:865
  [7] get(model::MathOptInterface.Utilities.CachingOptimizer{MathOptInterface.Bridges.LazyBridgeOptimizer{MathOptInterface.Utilities.CachingOptimizer{AmplNLWriter.Optimizer, MathOptInterface.Utilities.UniversalFallback{MathOptInterface.Utilities.Model{Float64}}}}, MathOptInterface.Utilities.UniversalFallback{MathOptInterface.Utilities.Model{Float64}}}, attr::MathOptInterface.ObjectiveBound)
    @ MathOptInterface.Utilities ~/.julia/packages/MathOptInterface/gLl4d/src/Utilities/cachingoptimizer.jl:900
  [8] _moi_get_result(model::MathOptInterface.Utilities.CachingOptimizer{MathOptInterface.Bridges.LazyBridgeOptimizer{MathOptInterface.Utilities.CachingOptimizer{AmplNLWriter.Optimizer, MathOptInterface.Utilities.UniversalFallback{MathOptInterface.Utilities.Model{Float64}}}}, MathOptInterface.Utilities.UniversalFallback{MathOptInterface.Utilities.Model{Float64}}}, args::MathOptInterface.ObjectiveBound)
    @ JuMP ~/.julia/packages/JuMP/FEKLB/src/optimizer_interface.jl:1053
  [9] get(model::JuMP.Model, attr::MathOptInterface.ObjectiveBound)
    @ JuMP ~/.julia/packages/JuMP/FEKLB/src/optimizer_interface.jl:1073
 [10] objective_bound(model::JuMP.Model)
    @ JuMP ~/.julia/packages/JuMP/FEKLB/src/objective.jl:78
 [11] nl_mcf(ptype::String, graph::String, commodities::String, nodes::String, incr::Int64, cost::Symbol, solver::AmplNLWriter.Optimizer, solver_params::Vector{Any}; restrict_to_commodities::Int64, solve::Bool, write_nl::Bool)
    @ IterativePWLB ~/git/ipwlb/code/sources/IterativePWLB/src/nlsolver.jl:1332
 [12] top-level scope
    @ ~/git/ipwlb/code/sources/IterativePWLB/test/couenne/mcf_arcs/script.jl:18
in expression starting at /home/ccontard/git/ipwlb/code/sources/IterativePWLB/test/couenne/mcf_arcs/script.jl:18
